p cnf 30 183
4 7 11 16 22 29 37 46 56 67 0
8 12 17 23 30 38 47 57 68 80 0
13 18 24 31 39 48 58 69 81 94 0
-4 -8 0
-7 -12 0
-11 -17 0
-16 -23 0
-22 -30 0
-29 -38 0
-37 -47 0
-46 -57 0
-56 -68 0
-67 -80 0
-4 -13 0
-7 -18 0
-11 -24 0
-16 -31 0
-22 -39 0
-29 -48 0
-37 -58 0
-46 -69 0
-56 -81 0
-67 -94 0
-8 -13 0
-12 -18 0
-17 -24 0
-23 -31 0
-30 -39 0
-38 -48 0
-47 -58 0
-57 -69 0
-68 -81 0
-80 -94 0
-4 -23 0
-4 -30 0
-4 -47 0
-4 -80 0
-7 -17 0
-7 -30 0
-7 -38 0
-7 -47 0
-7 -80 0
-11 -23 0
-11 -30 0
-11 -38 0
-11 -47 0
-11 -57 0
-11 -68 0
-11 -80 0
-16 -38 0
-22 -38 0
-22 -57 0
-22 -68 0
-29 -47 0
-29 -68 0
-29 -80 0
-46 -68 0
-56 -80 0
-4 -31 0
-4 -39 0
-4 -58 0
-4 -94 0
-7 -24 0
-7 -39 0
-7 -48 0
-7 -58 0
-7 -94 0
-11 -31 0
-11 -39 0
-11 -48 0
-11 -58 0
-11 -69 0
-11 -81 0
-11 -94 0
-16 -48 0
-22 -48 0
-22 -69 0
-22 -81 0
-29 -58 0
-29 -81 0
-29 -94 0
-46 -81 0
-56 -94 0
-8 -16 0
-8 -22 0
-8 -37 0
-8 -67 0
-12 -11 0
-12 -22 0
-12 -29 0
-12 -37 0
-12 -67 0
-17 -16 0
-17 -22 0
-17 -29 0
-17 -37 0
-17 -46 0
-17 -56 0
-17 -67 0
-23 -29 0
-30 -29 0
-30 -46 0
-30 -56 0
-38 -37 0
-38 -56 0
-38 -67 0
-57 -56 0
-68 -67 0
-8 -31 0
-8 -39 0
-8 -58 0
-8 -94 0
-12 -24 0
-12 -39 0
-12 -48 0
-12 -58 0
-12 -94 0
-17 -31 0
-17 -39 0
-17 -48 0
-17 -58 0
-17 -69 0
-17 -81 0
-17 -94 0
-23 -48 0
-30 -48 0
-30 -69 0
-30 -81 0
-38 -58 0
-38 -81 0
-38 -94 0
-57 -81 0
-68 -94 0
-13 -16 0
-13 -22 0
-13 -37 0
-13 -67 0
-18 -11 0
-18 -22 0
-18 -29 0
-18 -37 0
-18 -67 0
-24 -16 0
-24 -22 0
-24 -29 0
-24 -37 0
-24 -46 0
-24 -56 0
-24 -67 0
-31 -29 0
-39 -29 0
-39 -46 0
-39 -56 0
-48 -37 0
-48 -56 0
-48 -67 0
-69 -56 0
-81 -67 0
-13 -23 0
-13 -30 0
-13 -47 0
-13 -80 0
-18 -17 0
-18 -30 0
-18 -38 0
-18 -47 0
-18 -80 0
-24 -23 0
-24 -30 0
-24 -38 0
-24 -47 0
-24 -57 0
-24 -68 0
-24 -80 0
-31 -38 0
-39 -38 0
-39 -57 0
-39 -68 0
-48 -47 0
-48 -68 0
-48 -80 0
-69 -68 0
-81 -80 0
